AME : levi30_21
COMMENT : 30: 36x20 -city problem (levikoppenhol)
TYPE : TSP
DIMENSION : 30
EDGE_WEIGHT_TYPE : EUC_2D
NODE_COORD_SECTION
1 18 33
2 3 21
3 14 6
4 4 4
5 2 26
6 0 25
7 12 17
8 17 34
9 0 33
10 7 22
11 5 14
12 11 33
13 3 6
14 16 25
15 2 19
16 9 1
17 15 30
18 5 35
19 11 34
20 0 3
21 16 16
22 20 20
23 19 15
24 4 2
25 11 34
26 6 26
27 11 34
28 8 12
29 4 16
30 3 16
EOF